NAME : explosion
TYPE : TSP
DIMENSION : 50
EDGE_WEIGHT_TYPE : EUC_2D
NODE_COORD_SECTION
1 796249 20553
2 648594 110809
3 25140 598470
4 896065 153636
5 573817 122522
6 757858 604191
7 592431 587400
8 559308 804418
9 997822 310319
10 796985 496570
11 740282 848379
12 765837 456750
13 739197 141746
14 808014 41229
15 49734 961717
16 996694 167023
17 706298 620660
18 444570 858
19 256471 961694
20 330760 999158
21 325077 925183
22 879220 402676
23 606386 134841
24 765588 17758
25 880003 5162
26 196999 753556
27 34385 990797
28 273438 817502
29 999967 18991
30 236941 833546
31 76008 661086
32 9555 614230
33 130272 829277
34 501540 96395
35 873832 31342
36 160167 802570
37 764537 504108
38 256502 988110
39 504165 601580
40 303549 867088
41 244061 640825
42 415852 798760
43 76905 786027
44 534444 731612
45 866686 195923
46 825835 108546
47 822493 338216
48 183659 779259
49 13122 905566
50 806301 575342
EOF
